unsat
(:added-eqs                   1576424
 :arith-eq-adapter            3480
 :arith-bound-propagations-lp 79988
 :arith-conflicts             413
 :arith-diseq                 97220
 :arith-fixed-eqs             120155
 :arith-lower                 90268
 :arith-make-feasible         44118
 :arith-max-columns           1224
 :arith-max-rows              679
 :arith-offset-eqs            45811
 :arith-upper                 141601
 :binary-propagations         7000177
 :conflicts                   16443
 :decisions                   1069173
 :del-clause                  23622
 :elim-unconstrained          4
 :max-memory                  53.85
 :memory                      36.06
 :minimized-lits              160686
 :mk-bool-var                 21405
 :mk-clause                   26658
 :mk-clause-binary            56927
 :num-allocs                  562633242
 :num-checks                  1
 :propagations                9453158
 :restarts                    104
 :rlimit-count                31483664
 :time                        35.57
 :total-time                  35.80)
